      30       23 
      28        2 
      16        5 
       4       39 
      36        3 
       1       33 
      22       27 
      37       14 
      21       19 
      35       24 
      38       18 
      10       11 
       7       41 
      20       12 
      42       26 
      34       31 
      25       29 
      17       13 
      15       40 
       9        6 
      32        0 
       8        0 
